;; Mutation-Based Equivalence Benchmark
;; Source:     AutomatArk / instance10681.smt2
;; Mutations:  literal_char_dec, range_shrink_hi
;; Status:     sat
;;
;; Original regex vs mutated regex
;; Equivalence check: unsat ⟺ L(R1) = L(R2)

(set-info :smt-lib-version 2.6)
(set-info :category "mutation")
(set-info :status sat)
(set-logic QF_S)

(declare-const x String)

;; R1: original
;; R2: mutated (literal_char_dec, range_shrink_hi)
(assert
  (str.in_re x
    (re.union (re.inter (re.union (re.++ (str.to_re "/") (re.+ (re.range "0" "9")) (re.* (re.union (str.to_re "s") (str.to_re "t") (str.to_re "n") (str.to_re "d") (str.to_re "r") (str.to_re "h"))) (re.* (re.union (str.to_re " ") (str.to_re "\u{9}") (str.to_re "\u{a}") (str.to_re "\u{c}") (str.to_re "\u{d}"))) (re.union (str.to_re "jan") (str.to_re "feb") (str.to_re "mar") (str.to_re "apr") (str.to_re "may") (str.to_re "jun") (str.to_re "jul") (str.to_re "aug") (str.to_re "sep") (str.to_re "oct") (str.to_re "nov") (str.to_re "dec")) (re.* (re.range "a" "z")) (re.* (re.union (str.to_re " ") (str.to_re "\u{9}") (str.to_re "\u{a}") (str.to_re "\u{c}") (str.to_re "\u{d}"))) (re.opt (re.++ (re.range "0" "9") (re.range "0" "9") (re.range "0" "9") (re.range "0" "9")))) (re.++ (re.union (str.to_re "jan") (str.to_re "feb") (str.to_re "mar") (str.to_re "apr") (str.to_re "may") (str.to_re "jun") (str.to_re "jul") (str.to_re "aug") (str.to_re "sep") (str.to_re "oct") (str.to_re "nov") (str.to_re "dec")) (re.* (re.range "a" "z")) (re.* (re.union (str.to_re " ") (str.to_re "\u{9}") (str.to_re "\u{a}") (str.to_re "\u{c}") (str.to_re "\u{d}"))) (re.+ (re.range "0" "9")) (re.* (re.union (str.to_re "s") (str.to_re "t") (str.to_re "n") (str.to_re "d") (str.to_re "r") (str.to_re "h")))) (re.++ (re.+ (re.range "0" "9")) (re.union (str.to_re "/") (str.to_re ".") (str.to_re "-")) (re.+ (re.range "0" "9")) (re.union (str.to_re "/") (str.to_re ".") (str.to_re "-")) (re.+ (re.range "0" "9")) (re.+ (re.range "0" "9"))) (re.++ (re.* (re.union (str.to_re "s") (str.to_re "a") (str.to_re "t") (str.to_re "u") (str.to_re "r") (str.to_re "n") (str.to_re "m") (str.to_re "o") (str.to_re "e") (str.to_re "w") (str.to_re "d") (str.to_re "h") (str.to_re "f") (str.to_re "i"))) (str.to_re "day/i\u{a}"))) (re.comp (re.union (re.++ (str.to_re "/") (re.+ (re.range "0" "9")) (re.* (re.union (str.to_re "s") (str.to_re "t") (str.to_re "n") (str.to_re "d") (str.to_re "r") (str.to_re "h"))) (re.* (re.union (str.to_re " ") (str.to_re "\u{9}") (str.to_re "\u{a}") (str.to_re "\u{c}") (str.to_re "\u{d}"))) (re.union (str.to_re "jan") (str.to_re "feb") (str.to_re "mar") (str.to_re "apr") (str.to_re "may") (str.to_re "jun") (str.to_re "jul") (str.to_re "aug") (str.to_re "sep") (str.to_re "oct") (str.to_re "nov") (str.to_re "dec")) (re.* (re.range "a" "z")) (re.* (re.union (str.to_re " ") (str.to_re "\u{9}") (str.to_re "\u{a}") (str.to_re "\u{c}") (str.to_re "\u{d}"))) (re.opt (re.++ (re.range "0" "9") (re.range "0" "9") (re.range "0" "9") (re.range "0" "9")))) (re.++ (re.union (str.to_re "jan") (str.to_re "feb") (str.to_re "mar") (str.to_re "apr") (str.to_re "may") (str.to_re "jun") (str.to_re "jul") (str.to_re "aug") (str.to_re "sep") (str.to_re "oct") (str.to_re "nov") (str.to_re "dec")) (re.* (re.range "a" "y")) (re.* (re.union (str.to_re " ") (str.to_re "\u{9}") (str.to_re "\u{a}") (str.to_re "\u{c}") (str.to_re "\u{d}"))) (re.+ (re.range "0" "9")) (re.* (re.union (str.to_re "r") (str.to_re "t") (str.to_re "n") (str.to_re "d") (str.to_re "r") (str.to_re "h")))) (re.++ (re.+ (re.range "0" "9")) (re.union (str.to_re "/") (str.to_re ".") (str.to_re "-")) (re.+ (re.range "0" "9")) (re.union (str.to_re "/") (str.to_re ".") (str.to_re "-")) (re.+ (re.range "0" "9")) (re.+ (re.range "0" "9"))) (re.++ (re.* (re.union (str.to_re "s") (str.to_re "a") (str.to_re "t") (str.to_re "u") (str.to_re "r") (str.to_re "n") (str.to_re "m") (str.to_re "o") (str.to_re "e") (str.to_re "w") (str.to_re "d") (str.to_re "h") (str.to_re "f") (str.to_re "i"))) (str.to_re "day/i\u{a}"))))) (re.inter (re.comp (re.union (re.++ (str.to_re "/") (re.+ (re.range "0" "9")) (re.* (re.union (str.to_re "s") (str.to_re "t") (str.to_re "n") (str.to_re "d") (str.to_re "r") (str.to_re "h"))) (re.* (re.union (str.to_re " ") (str.to_re "\u{9}") (str.to_re "\u{a}") (str.to_re "\u{c}") (str.to_re "\u{d}"))) (re.union (str.to_re "jan") (str.to_re "feb") (str.to_re "mar") (str.to_re "apr") (str.to_re "may") (str.to_re "jun") (str.to_re "jul") (str.to_re "aug") (str.to_re "sep") (str.to_re "oct") (str.to_re "nov") (str.to_re "dec")) (re.* (re.range "a" "z")) (re.* (re.union (str.to_re " ") (str.to_re "\u{9}") (str.to_re "\u{a}") (str.to_re "\u{c}") (str.to_re "\u{d}"))) (re.opt (re.++ (re.range "0" "9") (re.range "0" "9") (re.range "0" "9") (re.range "0" "9")))) (re.++ (re.union (str.to_re "jan") (str.to_re "feb") (str.to_re "mar") (str.to_re "apr") (str.to_re "may") (str.to_re "jun") (str.to_re "jul") (str.to_re "aug") (str.to_re "sep") (str.to_re "oct") (str.to_re "nov") (str.to_re "dec")) (re.* (re.range "a" "z")) (re.* (re.union (str.to_re " ") (str.to_re "\u{9}") (str.to_re "\u{a}") (str.to_re "\u{c}") (str.to_re "\u{d}"))) (re.+ (re.range "0" "9")) (re.* (re.union (str.to_re "s") (str.to_re "t") (str.to_re "n") (str.to_re "d") (str.to_re "r") (str.to_re "h")))) (re.++ (re.+ (re.range "0" "9")) (re.union (str.to_re "/") (str.to_re ".") (str.to_re "-")) (re.+ (re.range "0" "9")) (re.union (str.to_re "/") (str.to_re ".") (str.to_re "-")) (re.+ (re.range "0" "9")) (re.+ (re.range "0" "9"))) (re.++ (re.* (re.union (str.to_re "s") (str.to_re "a") (str.to_re "t") (str.to_re "u") (str.to_re "r") (str.to_re "n") (str.to_re "m") (str.to_re "o") (str.to_re "e") (str.to_re "w") (str.to_re "d") (str.to_re "h") (str.to_re "f") (str.to_re "i"))) (str.to_re "day/i\u{a}")))) (re.union (re.++ (str.to_re "/") (re.+ (re.range "0" "9")) (re.* (re.union (str.to_re "s") (str.to_re "t") (str.to_re "n") (str.to_re "d") (str.to_re "r") (str.to_re "h"))) (re.* (re.union (str.to_re " ") (str.to_re "\u{9}") (str.to_re "\u{a}") (str.to_re "\u{c}") (str.to_re "\u{d}"))) (re.union (str.to_re "jan") (str.to_re "feb") (str.to_re "mar") (str.to_re "apr") (str.to_re "may") (str.to_re "jun") (str.to_re "jul") (str.to_re "aug") (str.to_re "sep") (str.to_re "oct") (str.to_re "nov") (str.to_re "dec")) (re.* (re.range "a" "z")) (re.* (re.union (str.to_re " ") (str.to_re "\u{9}") (str.to_re "\u{a}") (str.to_re "\u{c}") (str.to_re "\u{d}"))) (re.opt (re.++ (re.range "0" "9") (re.range "0" "9") (re.range "0" "9") (re.range "0" "9")))) (re.++ (re.union (str.to_re "jan") (str.to_re "feb") (str.to_re "mar") (str.to_re "apr") (str.to_re "may") (str.to_re "jun") (str.to_re "jul") (str.to_re "aug") (str.to_re "sep") (str.to_re "oct") (str.to_re "nov") (str.to_re "dec")) (re.* (re.range "a" "y")) (re.* (re.union (str.to_re " ") (str.to_re "\u{9}") (str.to_re "\u{a}") (str.to_re "\u{c}") (str.to_re "\u{d}"))) (re.+ (re.range "0" "9")) (re.* (re.union (str.to_re "r") (str.to_re "t") (str.to_re "n") (str.to_re "d") (str.to_re "r") (str.to_re "h")))) (re.++ (re.+ (re.range "0" "9")) (re.union (str.to_re "/") (str.to_re ".") (str.to_re "-")) (re.+ (re.range "0" "9")) (re.union (str.to_re "/") (str.to_re ".") (str.to_re "-")) (re.+ (re.range "0" "9")) (re.+ (re.range "0" "9"))) (re.++ (re.* (re.union (str.to_re "s") (str.to_re "a") (str.to_re "t") (str.to_re "u") (str.to_re "r") (str.to_re "n") (str.to_re "m") (str.to_re "o") (str.to_re "e") (str.to_re "w") (str.to_re "d") (str.to_re "h") (str.to_re "f") (str.to_re "i"))) (str.to_re "day/i\u{a}")))))))

(check-sat)
(exit)
